1705.23
0 3 6 1 2 5 4 7 0
0 71 13 8 11 10 72 9 12 0
0 14 19 15 20 22 16 18 17 0
0 25 24 23 28 21 27 26 0
0 31 32 49 33 30 29 34 0
0 41 42 36 37 35 38 39 40 0
0 51 44 43 73 47 48 45 46 0
0 55 50 56 60 57 54 53 52 0
0 59 65 58 63 64 61 62 68 0
0 70 69 74 75 67 66 0
